NAME : single
TYPE : ATSP
DIMENSION : 4
EDGE_WEIGHT_TYPE : EXPLICIT
EDGE_WEIGHT_FORMAT : FULL_MATRIX
EDGE_WEIGHT_SECTION
0 213 139 6553600 
6553600 0 37 599 
6553600 37 0 693 
0 6553600 6553600 0 
EOF